3
50
9255
[[176,147, 47,191,252,511,339,539, 35,137,282, 57,697,542,568,886,769,421,196,330,925,974,271,100,637,872, 54,668,554,180,957, 42,773,114,802,304,375,294,460,872,608,683, 33,849,180,520,197,531,257,319],
 [824,853,953,809,748,489,661,461,965,863,718,943,303,458,432,114,231,579,804,670, 75, 26,729,900,363,128,946,332,446,820, 43,958,227,886,198,696,625,706,540,128,392,317,967,151,820,480,803,469,743,681],
 [ 37, 50, 56, 97, 45,  1, 75, 39, 32, 51, 41,  2, 78,  8, 78, 38, 84, 54, 28, 19, 33, 24, 59, 75, 87, 99, 59, 29, 35,  1,  3, 61, 34, 49, 63, 72, 18, 10, 19,  7, 48,  5, 46, 59, 49, 86, 65, 92, 24, 27]]
[417, 40,391, 15,663,288,432,511,497,847,399,567,325, 46, 44,129,128,618,456, 28,360, 65,229,342,484,806,392,100, 40,412,105,390,922,454,741,179,555, 84,658,282,955,107,461,690,513,189, 60,360,683, 52]